solution status: optimal solution found
objective value:                     218762.215796546
d11(0,0)                                            1 	(obj:0)
d11(1,1)                                            1 	(obj:0)
d11(1,2)                                            1 	(obj:0)
d11(3,7)                                            1 	(obj:0)
d11(3,9)                                            1 	(obj:0)
d11(3,11)                                           1 	(obj:0)
d11(3,13)                                           1 	(obj:0)
d11(4,15)                                           1 	(obj:0)
d11(4,17)                                           1 	(obj:0)
d11(4,19)                                           1 	(obj:0)
d11(4,20)                                           1 	(obj:0)
d11(4,21)                                           1 	(obj:0)
d11(4,22)                                           1 	(obj:0)
d11(4,23)                                           1 	(obj:0)
d11(4,24)                                           1 	(obj:0)
d11(4,25)                                           1 	(obj:0)
d11(4,26)                                           1 	(obj:0)
d11(4,27)                                           1 	(obj:0)
d11(4,28)                                           1 	(obj:0)
d11(4,29)                                           1 	(obj:0)
d11(4,30)                                           1 	(obj:0)
d11(5,31)                                           1 	(obj:0)
d11(5,32)                                           1 	(obj:0)
d11(5,33)                                           1 	(obj:0)
d11(5,34)                                           1 	(obj:0)
d11(5,35)                                           1 	(obj:0)
d11(5,36)                                           1 	(obj:0)
d11(5,37)                                           1 	(obj:0)
d11(5,38)                                           1 	(obj:0)
d11(5,39)                                           1 	(obj:0)
d11(5,41)                                           1 	(obj:0)
d11(5,42)                                           1 	(obj:0)
d11(5,43)                                           1 	(obj:0)
d11(5,45)                                           1 	(obj:0)
d11(5,46)                                           1 	(obj:0)
d11(5,47)                                           1 	(obj:0)
d11(5,48)                                           1 	(obj:0)
d11(5,49)                                           1 	(obj:0)
d11(5,50)                           0.999999999999872 	(obj:0)
d11(5,51)                                           1 	(obj:0)
d11(5,52)                                           1 	(obj:0)
d11(5,53)                                           1 	(obj:0)
d11(5,55)                                           1 	(obj:0)
d11(5,57)                                           1 	(obj:0)
d11(5,58)                                           1 	(obj:0)
d11(5,59)                                           1 	(obj:0)
d11(5,60)                                           1 	(obj:0)
d11(5,61)                                           1 	(obj:0)
d11(5,62)                                           1 	(obj:0)
d11(6,63)                                           1 	(obj:0)
d11(6,65)                                           1 	(obj:0)
d11(6,67)                                           1 	(obj:0)
d11(6,69)                                           1 	(obj:0)
d11(6,71)                                           1 	(obj:0)
d11(6,73)                                           1 	(obj:0)
d11(6,77)                                           1 	(obj:0)
d11(6,79)                                           1 	(obj:0)
d11(6,81)                                           1 	(obj:0)
d11(6,83)                                           1 	(obj:0)
d11(6,85)                                           1 	(obj:0)
d11(6,87)                                           1 	(obj:0)
d11(6,89)                                           1 	(obj:0)
d11(6,91)                                           1 	(obj:0)
d11(6,93)                                           1 	(obj:0)
d11(6,95)                                           1 	(obj:0)
d11(6,97)                                           1 	(obj:0)
d11(6,99)                                           1 	(obj:0)
d11(6,101)                                          1 	(obj:0)
d11(6,103)                                          1 	(obj:0)
d11(6,105)                                          1 	(obj:0)
d11(6,107)                                          1 	(obj:0)
d11(6,109)                                          1 	(obj:0)
d11(6,111)                                          1 	(obj:0)
d11(6,113)                                          1 	(obj:0)
d11(6,115)                                          1 	(obj:0)
d11(6,117)                                          1 	(obj:0)
d11(6,119)                                          1 	(obj:0)
d11(6,121)                                          1 	(obj:0)
d11(6,123)                                          1 	(obj:0)
d11(6,125)                                          1 	(obj:0)
d12(2,3)                                            1 	(obj:0)
d12(2,4)                                            1 	(obj:0)
d12(2,5)                                            1 	(obj:0)
d12(2,6)                                            1 	(obj:0)
d12(6,64)                                           1 	(obj:0)
d12(6,66)                                           1 	(obj:0)
d12(6,68)                                           1 	(obj:0)
d12(6,70)                                           1 	(obj:0)
d12(6,72)                                           1 	(obj:0)
d12(6,74)                                           1 	(obj:0)
d12(6,76)                                           1 	(obj:0)
d12(6,78)                                           1 	(obj:0)
d12(6,80)                                           1 	(obj:0)
d12(6,82)                                           1 	(obj:0)
d12(6,84)                                           1 	(obj:0)
d12(6,86)                                           1 	(obj:0)
d12(6,88)                                           1 	(obj:0)
d12(6,90)                                           1 	(obj:0)
d12(6,92)                                           1 	(obj:0)
d12(6,94)                                           1 	(obj:0)
d12(6,96)                                           1 	(obj:0)
d12(6,98)                                           1 	(obj:0)
d12(6,100)                                          1 	(obj:0)
d12(6,102)                                          1 	(obj:0)
d12(6,104)                                          1 	(obj:0)
d12(6,106)                                          1 	(obj:0)
d12(6,108)                                          1 	(obj:0)
d12(6,110)                                          1 	(obj:0)
d12(6,112)                                          1 	(obj:0)
d12(6,114)                                          1 	(obj:0)
d12(6,116)                                          1 	(obj:0)
d12(6,118)                                          1 	(obj:0)
d12(6,120)                                          1 	(obj:0)
d12(6,122)                                          1 	(obj:0)
d12(6,124)                                          1 	(obj:0)
d12(6,126)                                          1 	(obj:0)
d21(3,7)                                            1 	(obj:0)
d21(4,15)                                           1 	(obj:0)
d21(4,16)                                           1 	(obj:0)
d21(4,17)                                           1 	(obj:0)
d21(4,19)                                           1 	(obj:0)
d21(4,23)                                           1 	(obj:0)
d21(5,31)                                           1 	(obj:0)
d21(5,32)                                           1 	(obj:0)
d21(5,33)                                           1 	(obj:0)
d21(5,34)                                           1 	(obj:0)
d21(5,35)                                           1 	(obj:0)
d21(5,36)                                           1 	(obj:0)
d21(5,37)                                           1 	(obj:0)
d21(5,39)                                           1 	(obj:0)
d21(5,40)                                           1 	(obj:0)
d21(5,41)                                           1 	(obj:0)
d21(5,43)                                           1 	(obj:0)
d21(5,47)                                           1 	(obj:0)
d21(5,48)                                           1 	(obj:0)
d21(5,49)                                           1 	(obj:0)
d21(5,51)                                           1 	(obj:0)
d21(5,55)                                           1 	(obj:0)
d21(6,63)                                           1 	(obj:0)
d21(6,64)                                           1 	(obj:0)
d21(6,65)                                           1 	(obj:0)
d21(6,66)                                           1 	(obj:0)
d21(6,67)                                           1 	(obj:0)
d21(6,68)                                           1 	(obj:0)
d21(6,69)                                           1 	(obj:0)
d21(6,70)                                           1 	(obj:0)
d21(6,71)                                           1 	(obj:0)
d21(6,72)                                           1 	(obj:0)
d21(6,73)                                           1 	(obj:0)
d21(6,74)                                           1 	(obj:0)
d21(6,75)                                           1 	(obj:0)
d21(6,76)                                           1 	(obj:0)
d21(6,79)                                           1 	(obj:0)
d21(6,80)                                           1 	(obj:0)
d21(6,81)                                           1 	(obj:0)
d21(6,82)                                           1 	(obj:0)
d21(6,83)                                           1 	(obj:0)
d21(6,84)                                           1 	(obj:0)
d21(6,85)                                           1 	(obj:0)
d21(6,87)                                           1 	(obj:0)
d21(6,88)                                           1 	(obj:0)
d21(6,89)                                           1 	(obj:0)
d21(6,91)                                           1 	(obj:0)
d21(6,95)                                           1 	(obj:0)
d21(6,96)                                           1 	(obj:0)
d21(6,97)                                           1 	(obj:0)
d21(6,98)                                           1 	(obj:0)
d21(6,99)                                           1 	(obj:0)
d21(6,100)                                          1 	(obj:0)
d21(6,103)                                          1 	(obj:0)
d21(6,104)                                          1 	(obj:0)
d21(6,107)                           0.99999999999987 	(obj:0)
d21(6,111)                                          1 	(obj:0)
d21(6,112)                                          1 	(obj:0)
d21(6,113)                                          1 	(obj:0)
d21(6,115)                                          1 	(obj:0)
d21(6,119)                                          1 	(obj:0)
y2(6,100)                            1385.48851144895 	(obj:0)
y2(6,102)                            1385.48851144895 	(obj:0)
y2(6,104)                            1385.48851144895 	(obj:0)
y2(6,106)                            1385.48851144895 	(obj:0)
y2(6,108)                            1385.48851144895 	(obj:0)
y2(6,110)                            1385.48851144895 	(obj:0)
y2(6,112)                            1385.48851144895 	(obj:0)
y2(6,114)                            1385.48851144895 	(obj:0)
y2(6,116)                            1385.48851144895 	(obj:0)
y2(6,118)                            1385.48851144895 	(obj:0)
y2(6,120)                            1385.48851144895 	(obj:0)
y2(6,122)                            1385.48851144895 	(obj:0)
y2(6,124)                            1385.48851144895 	(obj:0)
y2(6,126)                            1385.48851144895 	(obj:0)
STE(1,1)                             2688.75010111118 	(obj:0)
STE(0,0)                                         4725 	(obj:0)
STE(1,2)                                         4347 	(obj:0)
STE(2,3)                             2457.00000013017 	(obj:0)
STE(2,4)                             3874.80366368011 	(obj:0)
STE(2,5)                             4115.24989901899 	(obj:0)
STE(2,6)                             5533.05356256893 	(obj:0)
STE(3,7)                             420.750101241302 	(obj:0)
STE(3,8)                             2079.00000013017 	(obj:0)
STE(3,9)                             1838.55376479124 	(obj:0)
STE(3,10)                            3496.80366368011 	(obj:0)
STE(3,11)                            2079.00000013012 	(obj:0)
STE(3,12)                            3737.24989901899 	(obj:0)
STE(3,13)                            3496.80366368006 	(obj:0)
STE(3,14)                            5155.05356256893 	(obj:0)
STE(4,15)                           -1615.49979764753 	(obj:0)
STE(4,16)                            42.7501012413019 	(obj:0)
STE(4,17)                            42.7501012413449 	(obj:0)
STE(4,18)                            1701.00000013017 	(obj:0)
STE(4,19)                           -197.696134097587 	(obj:0)
STE(4,20)                            1460.55376479124 	(obj:0)
STE(4,21)                            1460.55376479128 	(obj:0)
STE(4,22)                             3118.8036636801 	(obj:0)
STE(4,23)                            42.7501012412922 	(obj:0)
STE(4,24)                            1701.00000013012 	(obj:0)
STE(4,25)                            1701.00000013016 	(obj:0)
STE(4,26)                            3359.24989901898 	(obj:0)
STE(4,27)                            1460.55376479123 	(obj:0)
STE(4,28)                            3118.80366368005 	(obj:0)
STE(4,29)                             3118.8036636801 	(obj:0)
STE(4,30)                            4777.05356256893 	(obj:0)
STE(5,31)                           -3651.74969653634 	(obj:0)
STE(5,32)                           -1993.49979764753 	(obj:0)
STE(5,33)                           -1993.49979764752 	(obj:0)
STE(5,34)                           -335.249898758698 	(obj:0)
STE(5,35)                           -1993.49979764747 	(obj:0)
STE(5,36)                           -335.249898758655 	(obj:0)
STE(5,37)                           -335.249898758645 	(obj:0)
STE(5,38)                            1323.00000013017 	(obj:0)
STE(5,39)                            -2233.9460329864 	(obj:0)
STE(5,40)                           -575.696134097587 	(obj:0)
STE(5,41)                           -575.696134097577 	(obj:0)
STE(5,42)                            1082.55376479124 	(obj:0)
STE(5,43)                           -575.696134097534 	(obj:0)
STE(5,44)                            1082.55376479128 	(obj:0)
STE(5,45)                            1082.55376479128 	(obj:0)
STE(5,46)                             2740.8036636801 	(obj:0)
STE(5,47)                           -1993.49979764753 	(obj:0)
STE(5,48)                           -335.249898758708 	(obj:0)
STE(5,49)                           -335.249898758698 	(obj:0)
STE(5,50)                                        1323 	(obj:0)
STE(5,51)                           -335.249898758655 	(obj:0)
STE(5,52)                            1323.00000013016 	(obj:0)
STE(5,53)                            1323.00000013016 	(obj:0)
STE(5,54)                            2981.24989901898 	(obj:0)
STE(5,55)                           -575.696134097587 	(obj:0)
STE(5,56)                            1082.55376479123 	(obj:0)
STE(5,57)                            1082.55376479123 	(obj:0)
STE(5,58)                            2740.80366368005 	(obj:0)
STE(5,59)                            1082.55376479128 	(obj:0)
STE(5,60)                             2740.8036636801 	(obj:0)
STE(5,61)                            2740.80366368011 	(obj:0)
STE(5,62)                            4399.05356256893 	(obj:0)
STE(6,63)                           -4029.74969653634 	(obj:0)
STE(6,64)                           -2713.53561065984 	(obj:0)
STE(6,65)                           -2371.49979764753 	(obj:0)
STE(6,66)                           -1055.28571177102 	(obj:0)
STE(6,67)                           -2371.49979764752 	(obj:0)
STE(6,68)                           -1055.28571177101 	(obj:0)
STE(6,69)                           -713.249898758698 	(obj:0)
STE(6,70)                            602.964187117808 	(obj:0)
STE(6,71)                           -2371.49979764747 	(obj:0)
STE(6,72)                           -1055.28571177097 	(obj:0)
STE(6,73)                           -713.249898758655 	(obj:0)
STE(6,74)                            602.964187117851 	(obj:0)
STE(6,75)                           -713.249898758645 	(obj:0)
STE(6,76)                            602.964187117861 	(obj:0)
STE(6,77)                            945.000000130172 	(obj:0)
STE(6,78)                            2261.21408600668 	(obj:0)
STE(6,79)                            -2611.9460329864 	(obj:0)
STE(6,80)                            -1295.7319471099 	(obj:0)
STE(6,81)                           -953.696134097587 	(obj:0)
STE(6,82)                            362.517951778919 	(obj:0)
STE(6,83)                           -953.696134097577 	(obj:0)
STE(6,84)                            362.517951778929 	(obj:0)
STE(6,85)                            704.553764791241 	(obj:0)
STE(6,86)                            2020.76785066775 	(obj:0)
STE(6,87)                           -953.696134097534 	(obj:0)
STE(6,88)                            362.517951778972 	(obj:0)
STE(6,89)                            704.553764791284 	(obj:0)
STE(6,90)                            2020.76785066779 	(obj:0)
STE(6,91)                            704.553764791284 	(obj:0)
STE(6,92)                            2020.76785066779 	(obj:0)
STE(6,93)                             2362.8036636801 	(obj:0)
STE(6,94)                            3679.01774955661 	(obj:0)
STE(6,95)                           -2371.49979764753 	(obj:0)
STE(6,96)                           -1055.28571177102 	(obj:0)
STE(6,97)                           -713.249898758708 	(obj:0)
STE(6,98)                            602.964187117798 	(obj:0)
STE(6,99)                           -713.249898758698 	(obj:0)
STE(6,100)                           602.964187117808 	(obj:0)
STE(6,101)                                        945 	(obj:0)
STE(6,102)                           2261.21408587651 	(obj:0)
STE(6,103)                          -713.249898758655 	(obj:0)
STE(6,104)                           602.964187117851 	(obj:0)
STE(6,105)                           945.000000130162 	(obj:0)
STE(6,106)                           2261.21408600667 	(obj:0)
STE(6,107)                           945.000000130162 	(obj:0)
STE(6,108)                           2261.21408600667 	(obj:0)
STE(6,109)                           2603.24989901892 	(obj:0)
STE(6,110)                           3919.46398489549 	(obj:0)
STE(6,111)                          -953.696134097587 	(obj:0)
STE(6,112)                           362.517951778919 	(obj:0)
STE(6,113)                           704.553764791231 	(obj:0)
STE(6,114)                           2020.76785066774 	(obj:0)
STE(6,115)                           704.553764791231 	(obj:0)
STE(6,116)                           2020.76785066774 	(obj:0)
STE(6,117)                           2362.80366368005 	(obj:0)
STE(6,118)                           3679.01774955655 	(obj:0)
STE(6,119)                           704.553764791284 	(obj:0)
STE(6,120)                           2020.76785066779 	(obj:0)
STE(6,121)                            2362.8036636801 	(obj:0)
STE(6,122)                           3679.01774955661 	(obj:0)
STE(6,123)                           2362.80366368011 	(obj:0)
STE(6,124)                           3679.01774955662 	(obj:0)
STE(6,125)                           4021.05356256893 	(obj:0)
STE(6,126)                           5337.26764844544 	(obj:0)
BG(5)                                4196.29249897959 	(obj:10)
BG(6)                                2673.40993877551 	(obj:10)
AVE(1)                               3259.55177567504 	(obj:0)
WB(2)                                3259.55588804169 	(obj:0)
AVE(2)                               3259.55588804169 	(obj:0)
AVE(3)                               3579.36165209166 	(obj:0)
AVE(4)                               3579.36576445831 	(obj:0)
WB(5)                                3472.77007794174 	(obj:0)
AVE(5)                               3472.77007794174 	(obj:0)
WB(6)                                 3046.3618950668 	(obj:0)
AVE(6)                                3046.3618950668 	(obj:0)
WG(1)                                  3259.551775675 	(obj:10)
WG(3)                                3579.36165209166 	(obj:10)
WG(4)                                3579.36576445831 	(obj:10)
BG(1)                                936.740723304565 	(obj:10)
BG(2)                                2417.64164497528 	(obj:10)
BG(3)                                616.930846887932 	(obj:10)
BG(4)                                616.926734521282 	(obj:10)
y1(1,1)                              1492.42490899994 	(obj:0)
y1(3,7)                              1492.42490899998 	(obj:0)
y1(3,9)                              1492.42490899998 	(obj:0)
y1(3,11)                             1492.42490899998 	(obj:0)
y1(3,13)                             1492.42490899998 	(obj:0)
y1(4,15)                             1492.42490899994 	(obj:0)
y1(4,17)                             1492.42490899994 	(obj:0)
y1(4,19)                             1492.42490899994 	(obj:0)
y1(4,21)                             1492.42490899994 	(obj:0)
y1(4,23)                             1492.42490899994 	(obj:0)
y1(4,25)                             1492.42490899994 	(obj:0)
y1(4,27)                             1492.42490899994 	(obj:0)
y1(4,29)                             1492.42490899994 	(obj:0)
y1(5,31)                             1492.42490899994 	(obj:0)
y1(5,33)                             1492.42490899994 	(obj:0)
y1(5,35)                             1492.42490899994 	(obj:0)
y1(5,37)                             1492.42490899994 	(obj:0)
y1(5,39)                             1492.42490899994 	(obj:0)
y1(5,41)                             1492.42490899994 	(obj:0)
y1(5,43)                             1492.42490899994 	(obj:0)
y1(5,45)                             1492.42490899994 	(obj:0)
y1(5,47)                             1492.42490899994 	(obj:0)
y1(5,49)                             1492.42490899994 	(obj:0)
y1(5,50)                         1.17107701953501e-007 	(obj:0)
y1(5,51)                             1492.42490899994 	(obj:0)
y1(5,53)                             1492.42490899994 	(obj:0)
y1(5,55)                             1492.42490899994 	(obj:0)
y1(5,57)                             1492.42490899994 	(obj:0)
y1(5,59)                             1492.42490899994 	(obj:0)
y1(5,61)                             1492.42490899994 	(obj:0)
y2(2,3)                              153.947262125252 	(obj:0)
y2(2,4)                              1646.37217112519 	(obj:0)
y2(2,5)                              153.947262125253 	(obj:0)
y2(2,6)                              1646.37217112519 	(obj:0)
y2(6,64)                             1385.48851144895 	(obj:0)
y2(6,66)                             1385.48851144895 	(obj:0)
y2(6,68)                             1385.48851144895 	(obj:0)
y2(6,70)                             1385.48851144895 	(obj:0)
y2(6,72)                             1385.48851144895 	(obj:0)
y2(6,74)                             1385.48851144895 	(obj:0)
y2(6,76)                             1385.48851144895 	(obj:0)
y2(6,78)                             1385.48851144895 	(obj:0)
y2(6,80)                             1385.48851144895 	(obj:0)
y2(6,82)                             1385.48851144895 	(obj:0)
y2(6,84)                             1385.48851144895 	(obj:0)
y2(6,86)                             1385.48851144895 	(obj:0)
y2(6,88)                             1385.48851144895 	(obj:0)
y2(6,90)                             1385.48851144895 	(obj:0)
y2(6,92)                             1385.48851144895 	(obj:0)
y2(6,94)                             1385.48851144895 	(obj:0)
y2(6,96)                             1385.48851144895 	(obj:0)
y2(6,98)                             1385.48851144895 	(obj:0)
